
******************************************************************************
This program contains Ipopt, a library for large-scale nonlinear optimization.
 Ipopt is released as open source code under the Eclipse Public License (EPL).
         For more information visit https://github.com/coin-or/Ipopt
******************************************************************************

This is Ipopt version 3.13.4, running with linear solver ma27.

Number of nonzeros in equality constraint Jacobian...:  1720009
Number of nonzeros in inequality constraint Jacobian.:        0
Number of nonzeros in Lagrangian Hessian.............:   800006

Total number of variables............................:   520009
                     variables with only lower bounds:        0
                variables with lower and upper bounds:        0
                     variables with only upper bounds:        0
Total number of equality constraints.................:   360009
Total number of inequality constraints...............:        0
        inequality constraints with only lower bounds:        0
   inequality constraints with lower and upper bounds:        0
        inequality constraints with only upper bounds:        0

iter    objective    inf_pr   inf_du lg(mu)  ||d||  lg(rg) alpha_du alpha_pr  ls
   0  7.6867677e+04 9.80e-02 1.00e+02  -1.0 0.00e+00    -  0.00e+00 0.00e+00   0
   1  2.3606745e+05 3.73e-06 2.40e+04  -1.0 1.03e+01    -  1.00e+00 1.00e+00h  1
   2  2.3606302e+05 8.99e-13 1.10e+00  -1.0 1.10e-04   4.0 1.00e+00 1.00e+00f  1
   3  1.9183266e+05 8.86e-06 1.58e-02  -1.0 2.19e+00    -  1.00e+00 1.00e+00f  1
   4  1.9183270e+05 2.20e-08 2.01e-06  -3.8 1.11e-02    -  1.00e+00 1.00e+00h  1
   5  1.9183270e+05 4.44e-16 9.94e-14  -8.6 1.62e-06    -  1.00e+00 1.00e+00h  1

Number of Iterations....: 5

                                   (scaled)                 (unscaled)
Objective...............:   9.5913952961202638e+04    1.9183270162005335e+05
Dual infeasibility......:   9.9395318364781104e-14    1.9879560649548045e-13
Constraint violation....:   4.4408920985006262e-16    4.4408920985006262e-16
Complementarity.........:   0.0000000000000000e+00    0.0000000000000000e+00
Overall NLP error.......:   9.9395318364781104e-14    1.9879560649548045e-13


Number of objective function evaluations             = 6
Number of objective gradient evaluations             = 6
Number of equality constraint evaluations            = 6
Number of inequality constraint evaluations          = 0
Number of equality constraint Jacobian evaluations   = 6
Number of inequality constraint Jacobian evaluations = 0
Number of Lagrangian Hessian evaluations             = 5
Total CPU secs in IPOPT (w/o function evaluations)   =      4.868
Total CPU secs in NLP function evaluations           =      2.307

EXIT: Optimal Solution Found.
